58
120
96	1
95	3
94	1
93	2
92	2
90	1
89	1
88	1
87	5
86	1
85	3
84	1
83	1
81	1
80	1
79	1
77	2
75	1
74	2
73	1
71	1
69	1
68	1
67	2
66	1
65	3
64	1
63	2
62	2
61	1
60	1
59	3
58	3
57	1
56	2
55	1
54	1
53	1
51	2
49	1
48	4
45	3
44	1
43	1
42	2
41	1
40	2
39	2
36	1
34	3
33	2
31	1
30	5
29	1
28	2
27	3
26	1
24	2
